; benchmark generated from python API
(set-info :status unknown)
(declare-fun syscall_stub_newfstatat_83_64 () (_ BitVec 64))
(declare-fun mem_c0000f45_79_992 () (_ BitVec 992))
(declare-fun mem_c0001010_98_32 () (_ BitVec 32))
(declare-fun mem_0_106_8 () (_ BitVec 8))
(declare-fun mem_15_423_8 () (_ BitVec 8))
(assert
 (let ((?x47 ((_ extract 31 0) syscall_stub_newfstatat_83_64)))
 (let (($x52 (bvule ?x47 (_ bv4294963200 32))))
 (not $x52))))
(assert
 (let ((?x2189 ((_ extract 900 900) mem_c0000f45_79_992)))
 (= (_ bv0 1) ?x2189)))
(assert
 (let ((?x3699 ((_ extract 891 891) mem_c0000f45_79_992)))
 (= (_ bv0 1) ?x3699)))
(assert
 (let ((?x2374 ((_ extract 839 832) mem_c0000f45_79_992)))
 (let ((?x2364 ((_ extract 831 824) mem_c0000f45_79_992)))
 (let ((?x2349 ((_ extract 823 816) mem_c0000f45_79_992)))
 (let ((?x2357 ((_ extract 815 808) mem_c0000f45_79_992)))
 (let ((?x2362 ((_ extract 807 800) mem_c0000f45_79_992)))
 (let ((?x2363 ((_ extract 799 792) mem_c0000f45_79_992)))
 (let ((?x593 (concat (concat ((_ extract 783 776) mem_c0000f45_79_992) ((_ extract 791 784) mem_c0000f45_79_992)) ?x2363)))
 (let ((?x4215 (concat (concat (concat (concat ?x593 ?x2362) ?x2357) ?x2349) ?x2364)))
 (let ((?x3812 (concat ?x4215 ?x2374)))
 (let ((?x2427 ((_ extract 775 768) mem_c0000f45_79_992)))
 (let ((?x2419 ((_ extract 767 760) mem_c0000f45_79_992)))
 (let ((?x2429 ((_ extract 759 752) mem_c0000f45_79_992)))
 (let ((?x2417 ((_ extract 751 744) mem_c0000f45_79_992)))
 (let ((?x2410 ((_ extract 743 736) mem_c0000f45_79_992)))
 (let ((?x2411 ((_ extract 735 728) mem_c0000f45_79_992)))
 (let ((?x4124 (concat (concat ((_ extract 719 712) mem_c0000f45_79_992) ((_ extract 727 720) mem_c0000f45_79_992)) ?x2411)))
 (let ((?x4642 (concat ?x4124 ?x2410)))
 (let ((?x3823 (concat (concat (concat (concat ?x4642 ?x2417) ?x2429) ?x2419) ?x2427)))
 (let (($x551 (bvule ?x3823 ?x3812)))
 (not $x551)))))))))))))))))))))
(assert
 (let ((?x2357 ((_ extract 815 808) mem_c0000f45_79_992)))
 (let ((?x2417 ((_ extract 751 744) mem_c0000f45_79_992)))
 (let (($x1690 (= ?x2417 ?x2357)))
 (let (($x3670 (not $x1690)))
 (let ((?x2362 ((_ extract 807 800) mem_c0000f45_79_992)))
 (let ((?x2410 ((_ extract 743 736) mem_c0000f45_79_992)))
 (let (($x1703 (= ?x2410 ?x2362)))
 (let (($x3664 (not $x1703)))
 (let ((?x2345 ((_ extract 783 776) mem_c0000f45_79_992)))
 (let ((?x2400 ((_ extract 719 712) mem_c0000f45_79_992)))
 (let (($x1701 (= ?x2400 ?x2345)))
 (let (($x3671 (not $x1701)))
 (let ((?x2363 ((_ extract 799 792) mem_c0000f45_79_992)))
 (let ((?x2411 ((_ extract 735 728) mem_c0000f45_79_992)))
 (let (($x1704 (= ?x2411 ?x2363)))
 (let (($x3672 (not $x1704)))
 (let ((?x2346 ((_ extract 791 784) mem_c0000f45_79_992)))
 (let ((?x2401 ((_ extract 727 720) mem_c0000f45_79_992)))
 (let (($x1693 (= ?x2401 ?x2346)))
 (let (($x4136 (not $x1693)))
 (let ((?x2364 ((_ extract 831 824) mem_c0000f45_79_992)))
 (let ((?x2419 ((_ extract 767 760) mem_c0000f45_79_992)))
 (let (($x1155 (= ?x2419 ?x2364)))
 (let (($x4137 (not $x1155)))
 (let ((?x2374 ((_ extract 839 832) mem_c0000f45_79_992)))
 (let ((?x2427 ((_ extract 775 768) mem_c0000f45_79_992)))
 (let (($x1152 (= ?x2427 ?x2374)))
 (let (($x4139 (not $x1152)))
 (let ((?x2349 ((_ extract 823 816) mem_c0000f45_79_992)))
 (let ((?x2429 ((_ extract 759 752) mem_c0000f45_79_992)))
 (let (($x1714 (= ?x2429 ?x2349)))
 (let (($x4539 (not $x1714)))
 (let (($x6038 (or $x4539 $x4139 $x4137 $x4136 $x3672 $x3671 $x3664 $x3670)))
 (let (($x9215 (not $x6038)))
 (let ((?x4533 (concat (concat (concat (concat (concat ?x2345 ?x2346) ?x2363) ?x2362) ?x2357) ?x2349)))
 (let ((?x4215 (concat ?x4533 ?x2364)))
 (let ((?x3812 (concat ?x4215 ?x2374)))
 (let ((?x3646 (bvmul (_ bv18446744073709551615 64) ?x3812)))
 (let ((?x3809 (concat (concat (concat (concat (concat ?x2400 ?x2401) ?x2411) ?x2410) ?x2417) ?x2429)))
 (let ((?x3823 (concat (concat ?x3809 ?x2419) ?x2427)))
 (let ((?x3827 (bvadd ?x3823 ?x3646)))
 (let ((?x2482 ((_ extract 63 63) ?x3827)))
 (let (($x2285 (= (_ bv1 1) ?x2482)))
 (or $x2285 $x9215)))))))))))))))))))))))))))))))))))))))))))))
(assert
 (= (_ bv0 32) mem_c0001010_98_32))
(assert
 (let ((?x2374 ((_ extract 839 832) mem_c0000f45_79_992)))
 (let ((?x2364 ((_ extract 831 824) mem_c0000f45_79_992)))
 (let ((?x2349 ((_ extract 823 816) mem_c0000f45_79_992)))
 (let ((?x2357 ((_ extract 815 808) mem_c0000f45_79_992)))
 (let ((?x2362 ((_ extract 807 800) mem_c0000f45_79_992)))
 (let ((?x2363 ((_ extract 799 792) mem_c0000f45_79_992)))
 (let ((?x593 (concat (concat ((_ extract 783 776) mem_c0000f45_79_992) ((_ extract 791 784) mem_c0000f45_79_992)) ?x2363)))
 (let ((?x4215 (concat (concat (concat (concat ?x593 ?x2362) ?x2357) ?x2349) ?x2364)))
 (let ((?x3812 (concat ?x4215 ?x2374)))
 (bvule ?x3812 (_ bv9223372036854775807 64))))))))))))
(assert
 (let ((?x2374 ((_ extract 839 832) mem_c0000f45_79_992)))
 (let ((?x2364 ((_ extract 831 824) mem_c0000f45_79_992)))
 (let ((?x2349 ((_ extract 823 816) mem_c0000f45_79_992)))
 (let ((?x2357 ((_ extract 815 808) mem_c0000f45_79_992)))
 (let ((?x2362 ((_ extract 807 800) mem_c0000f45_79_992)))
 (let ((?x2363 ((_ extract 799 792) mem_c0000f45_79_992)))
 (let ((?x593 (concat (concat ((_ extract 783 776) mem_c0000f45_79_992) ((_ extract 791 784) mem_c0000f45_79_992)) ?x2363)))
 (let ((?x4215 (concat (concat (concat (concat ?x593 ?x2362) ?x2357) ?x2349) ?x2364)))
 (let ((?x3812 (concat ?x4215 ?x2374)))
 (= (_ bv0 64) ?x3812)))))))))))
(assert
 (= (_ bv10 8) mem_0_106_8))
(assert
 (let ((?x2290 ((_ extract 900 896) mem_c0000f45_79_992)))
 (let ((?x49471 (concat (concat ((_ extract 903 902) mem_c0000f45_79_992) (_ bv0 1)) ?x2290)))
 (let ((?x47448 (bvand ?x49471 (_ bv32 8))))
 (= (_ bv0 8) ?x47448)))))
(assert
 (let ((?x1386418 (bvand mem_15_423_8 (_ bv32 8))))
 (= (_ bv0 8) ?x1386418)))
(minimize mem_15_423_8)
(maximize syscall_stub_newfstatat_83_64)
(minimize mem_c0001010_98_32)
(minimize mem_c0000f45_79_992)
(maximize mem_c0001010_98_32)
(maximize mem_0_106_8)
(maximize mem_c0000f45_79_992)
(maximize mem_15_423_8)
(minimize syscall_stub_newfstatat_83_64)
(minimize mem_0_106_8)
(check-sat)
(get-objectives)
